1 100 599
1 3 1 0 3 1 2 3 1 3
1
2
0 40.0 50.0 0.0 0.0 0 240
2 25.0 85.0 10.0 20.0 0 191 90 1 0 0 0 0 0 0 0 1 0
3 22.0 75.0 10.0 30.0 0 199 45 0 0 0 0 0 0 0 1 0 0
4 22.0 85.0 10.0 10.0 0 190 1 0 0 0 0 0 0 1 1 0 0
5 20.0 80.0 10.0 40.0 141 171 88 0 0 1 0 0 0 1 0 0 0
6 20.0 85.0 10.0 20.0 0 189 39 1 1 0 0 0 1 0 0 0 0
7 18.0 75.0 10.0 20.0 0 196 45 0 1 0 0 0 0 0 0 0 0
8 15.0 75.0 10.0 20.0 0 194 60 0 0 0 0 1 0 0 0 0 0
9 15.0 80.0 10.0 10.0 91 121 80 0 0 0 0 0 1 0 0 0 0
10 10.0 35.0 10.0 20.0 91 121 92 0 0 0 0 0 1 0 0 0 0
11 10.0 40.0 10.0 30.0 0 198 57 0 0 0 0 1 0 1 0 0 0
12 8.0 40.0 10.0 40.0 59 89 80 1 1 0 0 0 0 0 0 1 1
13 8.0 45.0 10.0 20.0 0 197 36 0 1 0 0 0 1 0 0 0 0
14 5.0 35.0 10.0 10.0 142 172 66 0 0 0 0 0 1 0 1 1 0
15 5.0 45.0 10.0 10.0 0 194 63 0 1 0 0 0 0 0 0 0 0
16 2.0 40.0 10.0 20.0 58 88 86 0 1 0 0 0 0 0 0 0 0
17 0.0 40.0 10.0 20.0 0 188 33 0 1 0 0 0 1 1 0 1 0
18 0.0 45.0 10.0 20.0 0 189 1 0 0 0 0 0 0 0 0 1 0
19 44.0 5.0 10.0 20.0 0 184 93 0 1 0 0 0 1 0 1 0 0
20 42.0 10.0 10.0 40.0 0 189 75 0 1 0 0 1 0 0 0 0 0
21 42.0 15.0 10.0 10.0 0 194 78 1 0 0 0 0 0 0 0 0 0
22 40.0 5.0 10.0 10.0 0 185 66 0 0 1 1 0 0 0 0 0 0
23 40.0 15.0 10.0 40.0 0 195 82 1 0 0 0 0 0 0 0 0 0
24 38.0 5.0 10.0 30.0 65 95 65 1 1 0 0 0 0 0 0 0 0
25 38.0 15.0 10.0 10.0 0 194 64 0 0 0 0 0 0 1 0 0 0
26 35.0 5.0 10.0 20.0 154 184 63 1 1 0 1 0 0 1 0 0 0
27 95.0 30.0 10.0 30.0 0 171 82 0 1 0 0 1 0 0 0 1 0
28 95.0 35.0 10.0 20.0 0 172 95 0 1 0 0 1 0 0 0 0 0
29 92.0 30.0 10.0 10.0 0 174 35 0 1 0 1 0 0 0 0 1 0
30 90.0 35.0 10.0 10.0 0 177 86 1 0 0 0 1 0 0 0 0 0
31 88.0 30.0 10.0 10.0 0 178 93 0 0 0 0 0 0 0 0 1 1
32 88.0 35.0 10.0 20.0 0 179 68 0 0 0 0 0 0 1 0 1 0
33 87.0 30.0 10.0 10.0 0 178 31 0 0 1 1 0 0 1 0 0 0
34 85.0 25.0 10.0 10.0 0 178 31 0 1 0 0 0 0 0 1 0 0
35 85.0 35.0 10.0 30.0 0 182 19 0 0 0 1 0 0 1 0 0 0
36 67.0 85.0 10.0 20.0 0 185 75 0 0 1 0 0 0 1 0 0 0
37 65.0 85.0 10.0 40.0 0 186 53 0 0 0 0 0 1 0 0 0 0
38 65.0 82.0 10.0 10.0 0 189 68 0 0 0 0 0 1 0 0 0 0
39 62.0 80.0 10.0 30.0 75 105 47 0 0 0 0 0 0 0 0 0 1
40 60.0 80.0 10.0 10.0 0 193 70 1 0 1 0 0 1 1 0 0 0
41 60.0 85.0 10.0 30.0 0 189 39 1 1 1 0 0 0 0 0 0 0
42 58.0 75.0 10.0 20.0 0 199 56 1 1 0 0 1 1 0 0 1 0
43 55.0 80.0 10.0 10.0 0 196 18 0 0 0 1 1 1 0 0 0 0
44 55.0 85.0 10.0 20.0 0 191 61 0 0 0 1 0 0 0 0 0 1
45 55.0 82.0 10.0 10.0 64 94 8 0 1 0 0 0 0 0 1 0 0
46 20.0 82.0 10.0 10.0 0 192 87 1 0 0 0 0 1 0 0 1 1
47 18.0 80.0 10.0 10.0 0 192 23 1 0 0 1 0 0 0 0 0 0
48 2.0 45.0 10.0 10.0 0 191 11 0 0 0 0 0 1 0 0 0 0
49 42.0 5.0 10.0 10.0 0 184 96 0 0 0 1 1 0 0 1 0 0
50 42.0 12.0 10.0 10.0 0 191 64 0 0 0 0 0 1 0 0 1 1
51 72.0 35.0 10.0 30.0 0 194 2 0 0 1 0 0 1 0 0 1 0
52 55.0 20.0 10.0 19.0 0 196 14 1 0 0 0 0 0 0 0 0 0
53 25.0 30.0 10.0 3.0 0 205 61 1 1 0 0 0 1 0 0 0 0
54 20.0 50.0 10.0 5.0 91 121 1 1 0 0 0 0 0 0 0 0 0
55 55.0 60.0 10.0 16.0 0 211 86 0 0 0 1 0 0 0 1 0 0
56 30.0 60.0 10.0 16.0 140 170 92 0 1 1 0 0 0 0 0 0 0
57 50.0 35.0 10.0 19.0 0 211 50 0 0 0 1 0 0 0 1 0 0
58 30.0 25.0 10.0 23.0 0 203 85 0 1 0 1 0 0 0 0 0 0
59 15.0 10.0 10.0 20.0 152 182 20 0 0 0 0 0 0 0 0 0 1
60 10.0 20.0 10.0 19.0 0 187 82 0 0 0 1 1 0 0 0 1 0
61 15.0 60.0 10.0 17.0 0 203 93 0 0 0 0 0 0 0 0 0 1
62 45.0 65.0 10.0 9.0 0 214 62 0 0 1 0 0 0 0 0 0 0
63 65.0 35.0 10.0 3.0 52 82 90 0 1 0 0 0 0 0 1 0 0
64 65.0 20.0 10.0 6.0 0 190 73 0 0 0 0 0 1 1 0 1 0
65 45.0 30.0 10.0 17.0 0 209 71 0 0 1 0 0 0 0 0 0 0
66 35.0 40.0 10.0 16.0 0 218 17 0 0 1 0 0 0 1 1 0 0
67 41.0 37.0 10.0 16.0 0 216 8 0 0 1 0 1 0 0 0 0 0
68 64.0 42.0 10.0 9.0 70 100 9 0 0 0 0 0 0 0 0 0 1
69 40.0 60.0 10.0 21.0 0 220 79 0 0 0 0 1 0 0 1 0 0
70 31.0 52.0 10.0 27.0 41 71 19 1 0 0 0 0 0 0 0 0 1
71 35.0 69.0 10.0 23.0 0 210 14 0 0 0 0 0 0 0 1 0 1
72 65.0 55.0 10.0 14.0 0 204 2 0 1 0 1 0 0 0 0 0 0
73 63.0 65.0 10.0 8.0 0 202 38 1 0 0 0 1 0 1 0 0 0
74 2.0 60.0 10.0 5.0 0 190 77 0 0 0 0 1 0 0 0 0 0
75 20.0 20.0 10.0 8.0 141 171 31 0 0 0 1 0 0 0 0 0 0
76 5.0 5.0 10.0 16.0 0 172 15 0 0 1 0 0 1 1 0 0 1
77 60.0 12.0 10.0 31.0 75 105 43 1 0 1 0 0 1 0 0 0 0
78 23.0 3.0 10.0 7.0 150 180 3 0 0 1 0 0 0 0 0 0 1
79 8.0 56.0 10.0 27.0 0 197 70 0 0 0 0 0 0 0 0 0 1
80 6.0 68.0 10.0 30.0 89 119 25 0 0 0 0 0 1 0 0 0 0
81 47.0 47.0 10.0 13.0 0 222 16 0 0 0 0 1 0 1 0 0 0
82 49.0 58.0 10.0 10.0 0 217 43 1 0 0 0 1 1 0 1 0 0
83 27.0 43.0 10.0 9.0 0 215 52 0 0 0 0 0 1 0 0 0 0
84 37.0 31.0 10.0 14.0 0 210 64 1 0 0 0 0 0 0 0 1 0
85 57.0 29.0 10.0 18.0 96 126 59 0 0 0 1 1 1 0 1 0 0
86 63.0 23.0 10.0 2.0 0 194 52 0 0 1 0 0 0 0 0 0 0
87 21.0 24.0 10.0 28.0 0 197 5 0 0 0 0 0 0 1 0 0 0
88 12.0 24.0 10.0 13.0 90 120 34 0 1 0 0 0 0 0 0 1 0
89 24.0 58.0 10.0 19.0 0 212 10 1 0 0 0 0 0 0 0 0 0
90 67.0 5.0 10.0 25.0 0 177 84 0 0 0 1 0 0 0 1 0 0
91 37.0 47.0 10.0 6.0 0 225 96 0 1 0 0 0 1 1 0 0 1
92 49.0 42.0 10.0 13.0 0 217 68 0 0 0 0 0 0 0 0 1 0
93 53.0 43.0 10.0 14.0 14 44 10 0 0 0 1 0 0 1 0 1 0
94 61.0 52.0 10.0 3.0 0 208 59 0 0 0 0 0 1 0 0 0 0
95 57.0 48.0 10.0 23.0 0 212 67 0 0 1 0 0 1 0 0 1 0
96 56.0 37.0 10.0 6.0 0 209 23 0 0 1 0 0 0 0 0 0 0
97 55.0 54.0 10.0 26.0 0 214 7 1 0 0 0 0 1 1 1 0 0
98 4.0 18.0 10.0 35.0 0 181 26 0 0 1 0 0 1 0 0 1 0
99 26.0 52.0 10.0 9.0 0 215 12 0 0 0 0 0 0 0 1 0 0
100 26.0 35.0 10.0 15.0 77 107 44 0 0 1 0 0 0 1 0 1 0
101 31.0 67.0 10.0 3.0 180 210 95 1 0 0 0 0 0 0 0 0 0